100
32
28
30
7
7
23
19
5
10
8
5
9
25
15
1
10
9
1
1
16
2
2
1
3
1
1
1
4
1
2
3
19
17
1
2
18
1
2
1
1
2
2
10
1
5
1
1
3
2
1
3
3
1
1
3
19
1
1
1
8
2
2
1
1
3
4
2
1
1
20
18
2
2
1
17
3
2
1
3
2
1
2
1
1
1
1
4
19
3
2
1
2
1
3
1
1
21
4
1
1
2